2087307.0
758
1 2 3 4 5 9 13 15 16 19 24 27 30 31 34 37 38 41 43 50 52 60 65 67 70 74 75 78 84 85 90 93 94 95 96 97 107 109 115 116 120 121 125 130 131 132 133 135 136 138 141 142 146 148 150 152 154 155 158 159 162 165 166 169 170 171 176 177 178 183 184 188 189 190 192 193 194 195 198 